50
7135

294 941
931 492
162 903
788 886
531 791
537 270
560 168
722 628
496 862
431 825
180 32
546 153
987 57
821 770
35 267
788 555
954 427
691 384
324 18
915 305
907 645
586 662
704 599
887 636
227 822
116 353
351 502
46 988
941 981
173 677
806 552
730 119
883 39
566 523
430 812
149 635
86 774
98 877
985 589
669 914
316 820
13 338
760 215
225 653
96 643
758 819
992 977
426 559
78 211
465 864
